c PMC file for PBN ISCAS/c1355_distill_ISCAS/c1355_miter written by probABC
p cnf 570 1515
c ind 1 2 3 4 5 6 7 8 9 10 11 12 13 14 15 16 17 18 19 20 21 22 23 24 25 26 27 28 29 30 31 32 33 34 35 36 37 38 39 40 41 539 540 541 542 543 544 545 546 547 548 549 550 551 552 553 554 555 556 557 558 559 560 561 562 0
51 -34 -41 0
-51 34 0
-51 41 0
52 2 6 0
-52 -2 0
-52 -6 0
53 -2 -6 0
-53 2 0
-53 6 0
54 52 53 0
-54 -52 0
-54 -53 0
55 -51 54 0
-55 51 0
-55 -54 0
56 51 -54 0
-56 -51 0
-56 54 0
57 55 56 0
-57 -55 0
-57 -56 0
58 31 32 0
-58 -31 0
-58 -32 0
59 -31 -32 0
-59 31 0
-59 32 0
60 58 59 0
-60 -58 0
-60 -59 0
61 -29 30 0
-61 29 0
-61 -30 0
62 29 -30 0
-62 -29 0
-62 30 0
63 61 62 0
-63 -61 0
-63 -62 0
64 -60 -63 0
-64 60 0
-64 63 0
65 60 63 0
-65 -60 0
-65 -63 0
66 64 65 0
-66 -64 0
-66 -65 0
67 27 28 0
-67 -27 0
-67 -28 0
68 -27 -28 0
-68 27 0
-68 28 0
69 67 68 0
-69 -67 0
-69 -68 0
70 -25 26 0
-70 25 0
-70 -26 0
71 25 -26 0
-71 -25 0
-71 26 0
72 70 71 0
-72 -70 0
-72 -71 0
73 -69 -72 0
-73 69 0
-73 72 0
74 69 72 0
-74 -69 0
-74 -72 0
75 73 74 0
-75 -73 0
-75 -74 0
76 10 14 0
-76 -10 0
-76 -14 0
77 -10 -14 0
-77 10 0
-77 14 0
78 76 77 0
-78 -76 0
-78 -77 0
79 -75 -78 0
-79 75 0
-79 78 0
80 75 78 0
-80 -75 0
-80 -78 0
81 79 80 0
-81 -79 0
-81 -80 0
82 -66 81 0
-82 66 0
-82 -81 0
83 66 -81 0
-83 -66 0
-83 81 0
84 82 83 0
-84 -82 0
-84 -83 0
85 -57 -84 0
-85 57 0
-85 84 0
86 57 84 0
-86 -57 0
-86 -84 0
87 85 86 0
-87 -85 0
-87 -86 0
88 -40 -41 0
-88 40 0
-88 41 0
89 20 24 0
-89 -20 0
-89 -24 0
90 -20 -24 0
-90 20 0
-90 24 0
91 89 90 0
-91 -89 0
-91 -90 0
92 -88 91 0
-92 88 0
-92 -91 0
93 88 -91 0
-93 -88 0
-93 91 0
94 92 93 0
-94 -92 0
-94 -93 0
95 28 32 0
-95 -28 0
-95 -32 0
96 -28 -32 0
-96 28 0
-96 32 0
97 95 96 0
-97 -95 0
-97 -96 0
98 15 16 0
-98 -15 0
-98 -16 0
99 -15 -16 0
-99 15 0
-99 16 0
100 98 99 0
-100 -98 0
-100 -99 0
101 -13 14 0
-101 13 0
-101 -14 0
102 13 -14 0
-102 -13 0
-102 14 0
103 101 102 0
-103 -101 0
-103 -102 0
104 -100 -103 0
-104 100 0
-104 103 0
105 100 103 0
-105 -100 0
-105 -103 0
106 104 105 0
-106 -104 0
-106 -105 0
107 -97 -106 0
-107 97 0
-107 106 0
108 97 106 0
-108 -97 0
-108 -106 0
109 107 108 0
-109 -107 0
-109 -108 0
110 7 8 0
-110 -7 0
-110 -8 0
111 -7 -8 0
-111 7 0
-111 8 0
112 110 111 0
-112 -110 0
-112 -111 0
113 -5 6 0
-113 5 0
-113 -6 0
114 5 -6 0
-114 -5 0
-114 6 0
115 113 114 0
-115 -113 0
-115 -114 0
116 -112 -115 0
-116 112 0
-116 115 0
117 112 115 0
-117 -112 0
-117 -115 0
118 116 117 0
-118 -116 0
-118 -117 0
119 -109 118 0
-119 109 0
-119 -118 0
120 109 -118 0
-120 -109 0
-120 118 0
121 119 120 0
-121 -119 0
-121 -120 0
122 -94 -121 0
-122 94 0
-122 121 0
123 94 121 0
-123 -94 0
-123 -121 0
124 122 123 0
-124 -122 0
-124 -123 0
125 -39 -41 0
-125 39 0
-125 41 0
126 19 23 0
-126 -19 0
-126 -23 0
127 -19 -23 0
-127 19 0
-127 23 0
128 126 127 0
-128 -126 0
-128 -127 0
129 -125 128 0
-129 125 0
-129 -128 0
130 125 -128 0
-130 -125 0
-130 128 0
131 129 130 0
-131 -129 0
-131 -130 0
132 27 31 0
-132 -27 0
-132 -31 0
133 -27 -31 0
-133 27 0
-133 31 0
134 132 133 0
-134 -132 0
-134 -133 0
135 11 12 0
-135 -11 0
-135 -12 0
136 -11 -12 0
-136 11 0
-136 12 0
137 135 136 0
-137 -135 0
-137 -136 0
138 -9 10 0
-138 9 0
-138 -10 0
139 9 -10 0
-139 -9 0
-139 10 0
140 138 139 0
-140 -138 0
-140 -139 0
141 -137 -140 0
-141 137 0
-141 140 0
142 137 140 0
-142 -137 0
-142 -140 0
143 141 142 0
-143 -141 0
-143 -142 0
144 -134 -143 0
-144 134 0
-144 143 0
145 134 143 0
-145 -134 0
-145 -143 0
146 144 145 0
-146 -144 0
-146 -145 0
147 3 4 0
-147 -3 0
-147 -4 0
148 -3 -4 0
-148 3 0
-148 4 0
149 147 148 0
-149 -147 0
-149 -148 0
150 -1 2 0
-150 1 0
-150 -2 0
151 1 -2 0
-151 -1 0
-151 2 0
152 150 151 0
-152 -150 0
-152 -151 0
153 -149 -152 0
-153 149 0
-153 152 0
154 149 152 0
-154 -149 0
-154 -152 0
155 153 154 0
-155 -153 0
-155 -154 0
156 -146 155 0
-156 146 0
-156 -155 0
157 146 -155 0
-157 -146 0
-157 155 0
158 156 157 0
-158 -156 0
-158 -157 0
159 -131 -158 0
-159 131 0
-159 158 0
160 131 158 0
-160 -131 0
-160 -158 0
161 159 160 0
-161 -159 0
-161 -160 0
162 -124 161 0
-162 124 0
-162 -161 0
163 17 -21 0
-163 -17 0
-163 21 0
164 43 163 0
-164 -43 0
-164 -163 0
165 -37 -41 0
-165 37 0
-165 41 0
166 -155 -165 0
-166 155 0
-166 165 0
167 155 165 0
-167 -155 0
-167 -165 0
168 166 167 0
-168 -166 0
-168 -167 0
169 -118 -168 0
-169 118 0
-169 168 0
170 118 168 0
-170 -118 0
-170 -168 0
171 169 170 0
-171 -169 0
-171 -170 0
172 -17 21 0
-172 17 0
-172 -21 0
173 -25 29 0
-173 25 0
-173 -29 0
174 25 -29 0
-174 -25 0
-174 29 0
175 173 174 0
-175 -173 0
-175 -174 0
176 -172 175 0
-176 172 0
-176 -175 0
177 172 -175 0
-177 -172 0
-177 175 0
178 176 177 0
-178 -176 0
-178 -177 0
179 -171 178 0
-179 171 0
-179 -178 0
180 171 -178 0
-180 -171 0
-180 178 0
181 179 180 0
-181 -179 0
-181 -180 0
182 -164 -181 0
-182 164 0
-182 181 0
183 164 181 0
-183 -164 0
-183 -181 0
184 182 183 0
-184 -182 0
-184 -183 0
185 -38 -41 0
-185 38 0
-185 41 0
186 -106 -143 0
-186 106 0
-186 143 0
187 106 143 0
-187 -106 0
-187 -143 0
188 186 187 0
-188 -186 0
-188 -187 0
189 185 -188 0
-189 -185 0
-189 188 0
190 -185 188 0
-190 185 0
-190 -188 0
191 189 190 0
-191 -189 0
-191 -190 0
192 44 191 0
-192 -44 0
-192 -191 0
193 -44 189 0
-193 44 0
-193 -189 0
194 192 193 0
-194 -192 0
-194 -193 0
195 26 30 0
-195 -26 0
-195 -30 0
196 -26 -30 0
-196 26 0
-196 30 0
197 195 196 0
-197 -195 0
-197 -196 0
198 -18 22 0
-198 18 0
-198 -22 0
199 18 -22 0
-199 -18 0
-199 22 0
200 198 199 0
-200 -198 0
-200 -199 0
201 -197 -200 0
-201 197 0
-201 200 0
202 197 200 0
-202 -197 0
-202 -200 0
203 201 202 0
-203 -201 0
-203 -202 0
204 194 -203 0
-204 -194 0
-204 203 0
205 -194 203 0
-205 194 0
-205 -203 0
206 204 205 0
-206 -204 0
-206 -205 0
207 184 206 0
-207 -184 0
-207 -206 0
208 11 15 0
-208 -11 0
-208 -15 0
209 -11 -15 0
-209 11 0
-209 15 0
210 208 209 0
-210 -208 0
-210 -209 0
211 -3 7 0
-211 3 0
-211 -7 0
212 3 -7 0
-212 -3 0
-212 7 0
213 211 212 0
-213 -211 0
-213 -212 0
214 -210 213 0
-214 210 0
-214 -213 0
215 210 -213 0
-215 -210 0
-215 213 0
216 214 215 0
-216 -214 0
-216 -215 0
217 -35 -41 0
-217 35 0
-217 41 0
218 19 20 0
-218 -19 0
-218 -20 0
219 -19 -20 0
-219 19 0
-219 20 0
220 218 219 0
-220 -218 0
-220 -219 0
221 -17 18 0
-221 17 0
-221 -18 0
222 17 -18 0
-222 -17 0
-222 18 0
223 221 222 0
-223 -221 0
-223 -222 0
224 -220 -223 0
-224 220 0
-224 223 0
225 220 223 0
-225 -220 0
-225 -223 0
226 224 225 0
-226 -224 0
-226 -225 0
227 -217 -226 0
-227 217 0
-227 226 0
228 217 226 0
-228 -217 0
-228 -226 0
229 227 228 0
-229 -227 0
-229 -228 0
230 -75 229 0
-230 75 0
-230 -229 0
231 75 -229 0
-231 -75 0
-231 229 0
232 230 231 0
-232 -230 0
-232 -231 0
233 -216 -232 0
-233 216 0
-233 232 0
234 216 232 0
-234 -216 0
-234 -232 0
235 233 234 0
-235 -233 0
-235 -234 0
236 12 16 0
-236 -12 0
-236 -16 0
237 -12 -16 0
-237 12 0
-237 16 0
238 236 237 0
-238 -236 0
-238 -237 0
239 4 8 0
-239 -4 0
-239 -8 0
240 -4 -8 0
-240 4 0
-240 8 0
241 239 240 0
-241 -239 0
-241 -240 0
242 -238 241 0
-242 238 0
-242 -241 0
243 238 -241 0
-243 -238 0
-243 241 0
244 242 243 0
-244 -242 0
-244 -243 0
245 -66 -244 0
-245 66 0
-245 244 0
246 66 244 0
-246 -66 0
-246 -244 0
247 245 246 0
-247 -245 0
-247 -246 0
248 -36 -41 0
-248 36 0
-248 41 0
249 -23 24 0
-249 23 0
-249 -24 0
250 23 -24 0
-250 -23 0
-250 24 0
251 249 250 0
-251 -249 0
-251 -250 0
252 -21 22 0
-252 21 0
-252 -22 0
253 21 -22 0
-253 -21 0
-253 22 0
254 252 253 0
-254 -252 0
-254 -253 0
255 -251 -254 0
-255 251 0
-255 254 0
256 251 254 0
-256 -251 0
-256 -254 0
257 255 256 0
-257 -255 0
-257 -256 0
258 -248 257 0
-258 248 0
-258 -257 0
259 248 -257 0
-259 -248 0
-259 257 0
260 258 259 0
-260 -258 0
-260 -259 0
261 -247 -260 0
-261 247 0
-261 260 0
262 247 260 0
-262 -247 0
-262 -260 0
263 261 262 0
-263 -261 0
-263 -262 0
264 -42 -263 0
-264 42 0
-264 263 0
265 42 263 0
-265 -42 0
-265 -263 0
266 264 265 0
-266 -264 0
-266 -265 0
267 -235 266 0
-267 235 0
-267 -266 0
268 235 -266 0
-268 -235 0
-268 266 0
269 267 268 0
-269 -267 0
-269 -268 0
270 -33 -41 0
-270 33 0
-270 41 0
271 -226 -270 0
-271 226 0
-271 270 0
272 226 270 0
-272 -226 0
-272 -270 0
273 271 272 0
-273 -271 0
-273 -272 0
274 -257 273 0
-274 257 0
-274 -273 0
275 257 -273 0
-275 -257 0
-275 273 0
276 274 275 0
-276 -274 0
-276 -275 0
277 9 13 0
-277 -9 0
-277 -13 0
278 -9 -13 0
-278 9 0
-278 13 0
279 277 278 0
-279 -277 0
-279 -278 0
280 -1 5 0
-280 1 0
-280 -5 0
281 1 -5 0
-281 -1 0
-281 5 0
282 280 281 0
-282 -280 0
-282 -281 0
283 -279 -282 0
-283 279 0
-283 282 0
284 279 282 0
-284 -279 0
-284 -282 0
285 283 284 0
-285 -283 0
-285 -284 0
286 -42 285 0
-286 42 0
-286 -285 0
287 42 -285 0
-287 -42 0
-287 285 0
288 286 287 0
-288 -286 0
-288 -287 0
289 276 -288 0
-289 -276 0
-289 288 0
290 -276 288 0
-290 276 0
-290 -288 0
291 289 290 0
-291 -289 0
-291 -290 0
292 87 -291 0
-292 -87 0
-292 291 0
293 269 -292 0
-293 -269 0
-293 292 0
294 87 291 0
-294 -87 0
-294 -291 0
295 -87 -291 0
-295 87 0
-295 291 0
296 294 295 0
-296 -294 0
-296 -295 0
297 -235 -266 0
-297 235 0
-297 266 0
298 296 -297 0
-298 -296 0
-298 297 0
299 293 298 0
-299 -293 0
-299 -298 0
300 -207 299 0
-300 207 0
-300 -299 0
301 -162 -300 0
-301 162 0
-301 300 0
302 191 203 0
-302 -191 0
-302 -203 0
303 -191 -203 0
-303 191 0
-303 203 0
304 302 303 0
-304 -302 0
-304 -303 0
305 163 172 0
-305 -163 0
-305 -172 0
306 175 -305 0
-306 -175 0
-306 305 0
307 -175 305 0
-307 175 0
-307 -305 0
308 306 307 0
-308 -306 0
-308 -307 0
309 -171 -308 0
-309 171 0
-309 308 0
310 171 308 0
-310 -171 0
-310 -308 0
311 309 310 0
-311 -309 0
-311 -310 0
312 -304 -311 0
-312 304 0
-312 311 0
313 -235 263 0
-313 235 0
-313 -263 0
314 235 -263 0
-314 -235 0
-314 263 0
315 313 314 0
-315 -313 0
-315 -314 0
316 -276 -285 0
-316 276 0
-316 285 0
317 276 285 0
-317 -276 0
-317 -285 0
318 316 317 0
-318 -316 0
-318 -317 0
319 87 -318 0
-319 -87 0
-319 318 0
320 315 -319 0
-320 -315 0
-320 319 0
321 87 318 0
-321 -87 0
-321 -318 0
322 -87 -318 0
-322 87 0
-322 318 0
323 321 322 0
-323 -321 0
-323 -322 0
324 -235 -263 0
-324 235 0
-324 263 0
325 323 -324 0
-325 -323 0
-325 324 0
326 320 325 0
-326 -320 0
-326 -325 0
327 -312 326 0
-327 312 0
-327 -326 0
328 -301 327 0
-328 301 0
-328 -327 0
329 -162 -327 0
-329 162 0
-329 327 0
330 300 -329 0
-330 -300 0
-330 329 0
331 328 330 0
-331 -328 0
-331 -330 0
332 -87 331 0
-332 87 0
-332 -331 0
333 124 161 0
-333 -124 0
-333 -161 0
334 -184 -206 0
-334 184 0
-334 206 0
335 207 334 0
-335 -207 0
-335 -334 0
336 -333 335 0
-336 333 0
-336 -335 0
337 124 -161 0
-337 -124 0
-337 161 0
338 162 337 0
-338 -162 0
-338 -337 0
339 184 -206 0
-339 -184 0
-339 206 0
340 338 -339 0
-340 -338 0
-340 339 0
341 336 340 0
-341 -336 0
-341 -340 0
342 -268 -295 0
-342 268 0
-342 295 0
343 341 -342 0
-343 -341 0
-343 342 0
344 206 -343 0
-344 -206 0
-344 343 0
345 304 311 0
-345 -304 0
-345 -311 0
346 312 345 0
-346 -312 0
-346 -345 0
347 -333 346 0
-347 333 0
-347 -346 0
348 304 -311 0
-348 -304 0
-348 311 0
349 338 -348 0
-349 -338 0
-349 348 0
350 347 349 0
-350 -347 0
-350 -349 0
351 -314 -322 0
-351 314 0
-351 322 0
352 350 -351 0
-352 -350 0
-352 351 0
353 -304 -352 0
-353 304 0
-353 352 0
354 344 -353 0
-354 -344 0
-354 353 0
355 326 -345 0
-355 -326 0
-355 345 0
356 299 -334 0
-356 -299 0
-356 334 0
357 -162 -356 0
-357 162 0
-357 356 0
358 355 -357 0
-358 -355 0
-358 357 0
359 -162 -355 0
-359 162 0
-359 355 0
360 356 -359 0
-360 -356 0
-360 359 0
361 358 360 0
-361 -358 0
-361 -360 0
362 235 361 0
-362 -235 0
-362 -361 0
363 87 -235 0
-363 -87 0
-363 235 0
364 -207 -337 0
-364 207 0
-364 337 0
365 299 -364 0
-365 -299 0
-365 364 0
366 -327 -337 0
-366 327 0
-366 337 0
367 365 366 0
-367 -365 0
-367 -366 0
368 -300 -366 0
-368 300 0
-368 366 0
369 363 367 0
-369 -363 0
-369 -367 0
370 368 -369 0
-370 -368 0
-370 369 0
371 291 -365 0
-371 -291 0
-371 365 0
372 318 -366 0
-372 -318 0
-372 366 0
373 371 -372 0
-373 -371 0
-373 372 0
374 -371 372 0
-374 371 0
-374 -372 0
375 266 -357 0
-375 -266 0
-375 357 0
376 263 -359 0
-376 -263 0
-376 359 0
377 375 376 0
-377 -375 0
-377 -376 0
378 -375 -376 0
-378 375 0
-378 376 0
379 377 378 0
-379 -377 0
-379 -378 0
380 291 -357 0
-380 -291 0
-380 357 0
381 318 -359 0
-381 -318 0
-381 359 0
382 380 381 0
-382 -380 0
-382 -381 0
383 -380 -381 0
-383 380 0
-383 381 0
384 382 383 0
-384 -382 0
-384 -383 0
385 291 -301 0
-385 -291 0
-385 301 0
386 318 -329 0
-386 -318 0
-386 329 0
387 385 386 0
-387 -385 0
-387 -386 0
388 -385 -386 0
-388 385 0
-388 386 0
389 387 388 0
-389 -387 0
-389 -388 0
390 -87 -359 0
-390 87 0
-390 359 0
391 -87 -357 0
-391 87 0
-391 357 0
392 -46 391 0
-392 46 0
-392 -391 0
393 -6 -46 0
-393 6 0
-393 46 0
394 -391 393 0
-394 391 0
-394 -393 0
395 392 394 0
-395 -392 0
-395 -394 0
396 -390 -395 0
-396 390 0
-396 395 0
397 235 331 0
-397 -235 0
-397 -331 0
398 266 -301 0
-398 -266 0
-398 301 0
399 263 -329 0
-399 -263 0
-399 329 0
400 398 399 0
-400 -398 0
-400 -399 0
401 -398 -399 0
-401 398 0
-401 399 0
402 400 401 0
-402 -400 0
-402 -401 0
403 390 395 0
-403 -390 0
-403 -395 0
404 263 -366 0
-404 -263 0
-404 366 0
405 266 -365 0
-405 -266 0
-405 365 0
406 -47 405 0
-406 47 0
-406 -405 0
407 -12 -47 0
-407 12 0
-407 47 0
408 -405 407 0
-408 405 0
-408 -407 0
409 406 408 0
-409 -406 0
-409 -408 0
410 404 -409 0
-410 -404 0
-410 409 0
411 -404 409 0
-411 404 0
-411 -409 0
412 410 411 0
-412 -410 0
-412 -411 0
413 -294 341 0
-413 294 0
-413 -341 0
414 -268 -413 0
-414 268 0
-414 413 0
415 206 -414 0
-415 -206 0
-415 414 0
416 -321 350 0
-416 321 0
-416 -350 0
417 -314 -416 0
-417 314 0
-417 416 0
418 -304 -417 0
-418 304 0
-418 417 0
419 415 -418 0
-419 -415 0
-419 418 0
420 -334 -337 0
-420 334 0
-420 337 0
421 -45 420 0
-421 45 0
-421 -420 0
422 45 -420 0
-422 -45 0
-422 420 0
423 421 422 0
-423 -421 0
-423 -422 0
424 299 423 0
-424 -299 0
-424 -423 0
425 -337 -355 0
-425 337 0
-425 355 0
426 424 425 0
-426 -424 0
-426 -425 0
427 -424 -425 0
-427 424 0
-427 425 0
428 363 426 0
-428 -363 0
-428 -426 0
429 427 -428 0
-429 -427 0
-429 428 0
430 -184 -414 0
-430 184 0
-430 414 0
431 311 -417 0
-431 -311 0
-431 417 0
432 430 431 0
-432 -430 0
-432 -431 0
433 -430 -431 0
-433 430 0
-433 431 0
434 432 433 0
-434 -432 0
-434 -433 0
435 -267 -413 0
-435 267 0
-435 413 0
436 206 -435 0
-436 -206 0
-436 435 0
437 -313 -416 0
-437 313 0
-437 416 0
438 -304 -437 0
-438 304 0
-438 437 0
439 436 438 0
-439 -436 0
-439 -438 0
440 -436 -438 0
-440 436 0
-440 438 0
441 439 440 0
-441 -439 0
-441 -440 0
442 -184 -435 0
-442 184 0
-442 435 0
443 311 -437 0
-443 -311 0
-443 437 0
444 442 443 0
-444 -442 0
-444 -443 0
445 -442 -443 0
-445 442 0
-445 443 0
446 444 445 0
-446 -444 0
-446 -445 0
447 343 -352 0
-447 -343 0
-447 352 0
448 -343 352 0
-448 343 0
-448 -352 0
449 447 448 0
-449 -447 0
-449 -448 0
450 435 -437 0
-450 -435 0
-450 437 0
451 -435 437 0
-451 435 0
-451 -437 0
452 -449 450 0
-452 449 0
-452 -450 0
453 451 -452 0
-453 -451 0
-453 452 0
454 -161 453 0
-454 161 0
-454 -453 0
455 -267 -295 0
-455 267 0
-455 295 0
456 341 -455 0
-456 -341 0
-456 455 0
457 -313 -322 0
-457 313 0
-457 322 0
458 350 -457 0
-458 -350 0
-458 457 0
459 456 -458 0
-459 -456 0
-459 458 0
460 -456 458 0
-460 456 0
-460 -458 0
461 459 460 0
-461 -459 0
-461 -460 0
462 -124 461 0
-462 124 0
-462 -461 0
463 49 462 0
-463 -49 0
-463 -462 0
464 -49 -462 0
-464 49 0
-464 462 0
465 463 464 0
-465 -463 0
-465 -464 0
466 -124 449 0
-466 124 0
-466 -449 0
467 -161 461 0
-467 161 0
-467 -461 0
468 -415 418 0
-468 415 0
-468 -418 0
469 -124 -437 0
-469 124 0
-469 437 0
470 -124 -435 0
-470 124 0
-470 435 0
471 -24 -48 0
-471 24 0
-471 48 0
472 470 471 0
-472 -470 0
-472 -471 0
473 -48 -470 0
-473 48 0
-473 470 0
474 472 473 0
-474 -472 0
-474 -473 0
475 -469 474 0
-475 469 0
-475 -474 0
476 414 417 0
-476 -414 0
-476 -417 0
477 -414 -417 0
-477 414 0
-477 417 0
478 333 476 0
-478 -333 0
-478 -476 0
479 477 -478 0
-479 -477 0
-479 478 0
480 206 -456 0
-480 -206 0
-480 456 0
481 -304 -458 0
-481 304 0
-481 458 0
482 -480 481 0
-482 480 0
-482 -481 0
483 -184 -456 0
-483 184 0
-483 456 0
484 311 -458 0
-484 -311 0
-484 458 0
485 483 484 0
-485 -483 0
-485 -484 0
486 -483 -484 0
-486 483 0
-486 484 0
487 485 486 0
-487 -485 0
-487 -486 0
488 469 -474 0
-488 -469 0
-488 474 0
489 480 -481 0
-489 -480 0
-489 481 0
490 -344 353 0
-490 344 0
-490 -353 0
491 266 -424 0
-491 -266 0
-491 424 0
492 263 -425 0
-492 -263 0
-492 425 0
493 491 492 0
-493 -491 0
-493 -492 0
494 -491 -492 0
-494 491 0
-494 492 0
495 493 494 0
-495 -493 0
-495 -494 0
496 291 -424 0
-496 -291 0
-496 424 0
497 318 -425 0
-497 -318 0
-497 425 0
498 496 497 0
-498 -496 0
-498 -497 0
499 -496 -497 0
-499 496 0
-499 497 0
500 498 499 0
-500 -498 0
-500 -499 0
501 -184 -343 0
-501 184 0
-501 343 0
502 311 -352 0
-502 -311 0
-502 352 0
503 501 502 0
-503 -501 0
-503 -502 0
504 -501 -502 0
-504 501 0
-504 502 0
505 503 504 0
-505 -503 0
-505 -504 0
506 373 374 0
-506 -373 0
-506 -374 0
507 332 -506 0
-507 -332 0
-507 506 0
508 354 362 0
-508 -354 0
-508 -362 0
509 370 379 0
-509 -370 0
-509 -379 0
510 384 389 0
-510 -384 0
-510 -389 0
511 397 402 0
-511 -397 0
-511 -402 0
512 482 489 0
-512 -482 0
-512 -489 0
513 490 -512 0
-513 -490 0
-513 512 0
514 -510 -511 0
-514 510 0
-514 511 0
515 -508 -509 0
-515 508 0
-515 509 0
516 396 -507 0
-516 -396 0
-516 507 0
517 403 412 0
-517 -403 0
-517 -412 0
518 419 429 0
-518 -419 0
-518 -429 0
519 466 467 0
-519 -466 0
-519 -467 0
520 468 487 0
-520 -468 0
-520 -487 0
521 495 500 0
-521 -495 0
-521 -500 0
522 505 -521 0
-522 -505 0
-522 521 0
523 -519 -520 0
-523 519 0
-523 520 0
524 -517 -518 0
-524 517 0
-524 518 0
525 -515 -516 0
-525 515 0
-525 516 0
526 -513 -514 0
-526 513 0
-526 514 0
527 434 441 0
-527 -434 0
-527 -441 0
528 446 479 0
-528 -446 0
-528 -479 0
529 -527 -528 0
-529 527 0
-529 528 0
530 -525 -526 0
-530 525 0
-530 526 0
531 -523 -524 0
-531 523 0
-531 524 0
532 454 -522 0
-532 -454 0
-532 522 0
533 465 475 0
-533 -465 0
-533 -475 0
534 488 -533 0
-534 -488 0
-534 533 0
535 -531 -532 0
-535 531 0
-535 532 0
536 -529 -530 0
-536 529 0
-536 530 0
537 -535 -536 0
-537 535 0
-537 536 0
538 -534 -537 0
-538 534 0
-538 537 0
50 538 0
-50 -538 0
50 0
42 -539 -563 0
-42 539 0
-42 563 0
563 -540 -541 0
-563 540 0
-563 541 0
43 -542 -564 0
-43 542 0
-43 564 0
564 -543 -544 0
-564 543 0
-564 544 0
44 -545 -565 0
-44 545 0
-44 565 0
565 -546 -547 0
-565 546 0
-565 547 0
45 -548 -566 0
-45 548 0
-45 566 0
566 -549 -550 0
-566 549 0
-566 550 0
46 -551 -567 0
-46 551 0
-46 567 0
567 -552 -553 0
-567 552 0
-567 553 0
47 -554 -568 0
-47 554 0
-47 568 0
568 -555 -556 0
-568 555 0
-568 556 0
48 -557 -569 0
-48 557 0
-48 569 0
569 -558 -559 0
-569 558 0
-569 559 0
49 -560 -570 0
-49 560 0
-49 570 0
570 -561 -562 0
-570 561 0
-570 562 0
